(set-info :smt-lib-version 2.6)
(set-logic QF_S)
(set-info :source |
Generated by: Murphy Berzish, Mitja Kulczynski, Federico Mora, Florin Manea, Joel Day, Dirk Nowotka, Vijay Ganesh, Zhengyang Lu
Generated on: 2020-10-01
Description: Translated from a collection of real-world regex queries, AutomataArk, collected by Loris D’Antoni and Fang Wang: https://github.com/lorisdanto/automatark
Application: Evaluate solvers on real-world regex queries
Target solver: Z3str3RE, CVC4, OSTRICH, Z3seq, Z3str3, Z3-Trau
Publications: Berzish, M., Kulczynski, M., Mora, F., Manea, F., Day, J. D., Nowotka, D., & Ganesh, V. (2021, July). An SMT solver for regular expressions and linear arithmetic over string length. In CAV 2021.
|)
(set-info :license "https://creativecommons.org/licenses/by/4.0/")
(set-info :category "industrial")
(set-info :status unsat)

(declare-const X String)
(assert (str.in_re X (str.to_re "FTPHost:User-Agent:User:distID=deskwizz.com\u{a}")))
(assert (str.in_re X (re.++ (re.union (re.++ ((_ re.loop 1 3) (re.range "0" "9")) (re.* (re.++ ((_ re.loop 1 1) (str.to_re ",")) ((_ re.loop 3 3) (re.range "0" "9"))))) (re.* (re.range "0" "9"))) (re.opt (re.++ ((_ re.loop 1 1) (str.to_re ".")) ((_ re.loop 2 2) (re.range "0" "9")))) (str.to_re "\u{a}"))))
(assert (str.in_re X (re.union ((_ re.loop 11 11) (re.range "0" "9")) (re.++ (str.to_re "\u{a}") (re.range "7" "9") ((_ re.loop 9 9) (re.range "0" "9"))))))
(assert (not (str.in_re X (re.++ (re.comp (str.to_re "_")) (re.+ (re.union (re.range "a" "z") (re.range "A" "Z") (re.range "0" "9") (str.to_re "_"))) (re.comp (str.to_re "_")) ((_ re.loop 1 1) (str.to_re "@")) (re.+ (re.range "a" "z")) ((_ re.loop 1 1) (str.to_re ".")) (re.union ((_ re.loop 2 3) (re.range "a" "z")) (re.++ ((_ re.loop 2 3) (re.range "a" "z")) ((_ re.loop 1 1) (str.to_re ".")) ((_ re.loop 2 3) (re.range "a" "z")))) (str.to_re "\u{a}")))))
(assert (str.in_re X (re.++ (str.to_re "/insertBefore(document.body)") (re.+ (re.++ (re.+ (re.comp (str.to_re "?"))) (str.to_re "createElement(") (re.union (str.to_re "\u{22}") (str.to_re "'")) (str.to_re "TR") (re.union (str.to_re "\u{22}") (str.to_re "'")) (str.to_re "))"))) (re.+ (re.comp (str.to_re "?"))) (str.to_re "<body") (re.+ (re.comp (str.to_re "?"))) (str.to_re "</body>/i\u{a}"))))
(check-sat)

(exit)
